(set-logic QF_SLIA)
(declare-fun var0 () String)
(assert (str.in_re var0 (re.++ ((_ re.loop 7 825) (re.++ (re.union (str.to_re "pUL") (re.union (str.to_re "sSk") (re.union (str.to_re ";") (str.to_re ">#<")))) (re.++ (re.union (str.to_re ">") (re.union (str.to_re "p") (re.union (str.to_re "XO") (str.to_re ";95")))) (re.++ (re.union (str.to_re "A") (re.union (str.to_re "7H") (re.union (str.to_re "c") (str.to_re "wy")))) (re.union (str.to_re "s") (re.union (str.to_re "c") (re.union (str.to_re ")\\j") (str.to_re "DG;")))))))) (re.++ ((_ re.loop 20 785) (re.++ (re.union (str.to_re "}mg") (re.union (str.to_re "[.!") (re.union (str.to_re "hU<") (str.to_re "X9")))) (re.++ (re.union (str.to_re "N_") (re.union (str.to_re "1") (re.union (str.to_re "<") (str.to_re ".E<")))) (re.++ (re.union (str.to_re "^4t") (re.union (str.to_re "4") (re.union (str.to_re "*") (str.to_re "0")))) (re.union (str.to_re "7") (re.union (str.to_re "'.") (re.union (str.to_re "q}S") (str.to_re "a1^")))))))) (re.++ ((_ re.loop 20 943) (re.++ (re.union (str.to_re "#g") (re.union (str.to_re "]") (re.union (str.to_re "/I,") (str.to_re "Q")))) (re.++ (re.union (str.to_re "}'v") (re.union (str.to_re "3V") (re.union (str.to_re "E") (str.to_re "7")))) (re.++ (re.union (str.to_re "65") (re.union (str.to_re "9~") (re.union (str.to_re "kE") (str.to_re "mPF")))) (re.union (str.to_re "Rg}") (re.union (str.to_re "`p") (re.union (str.to_re "z") (str.to_re "[s")))))))) ((_ re.loop 11 186) (re.++ (re.union (str.to_re "RK$") (re.union (str.to_re "$0I") (re.union (str.to_re "EO") (str.to_re "*S~")))) (re.++ (re.union (str.to_re "|bU") (re.union (str.to_re ":~") (re.union (str.to_re ",") (str.to_re "G\\")))) (re.++ (re.union (str.to_re "1T") (re.union (str.to_re "J") (re.union (str.to_re "L") (str.to_re "-tC")))) (re.union (str.to_re "@k") (re.union (str.to_re "<+'") (re.union (str.to_re "G'") (str.to_re "ft")))))))))))))
(assert (not (str.in_re var0 (re.++ ((_ re.loop 9 64) (re.++ (re.union (str.to_re "v4,") (re.union (str.to_re "=") (re.union (str.to_re "r") (str.to_re "M")))) (re.++ (re.union (str.to_re "n") (re.union (str.to_re "\u0022T") (re.union (str.to_re "A") (str.to_re "kTy")))) (re.++ (re.union (str.to_re "H") (re.union (str.to_re "?V") (re.union (str.to_re "N") (str.to_re "o")))) (re.union (str.to_re ";L") (re.union (str.to_re "I") (re.union (str.to_re "kS") (str.to_re "H")))))))) (re.++ ((_ re.loop 20 359) (re.++ (re.union (str.to_re "8C") (re.union (str.to_re "j") (re.union (str.to_re "O") (str.to_re ")/4")))) (re.++ (re.union (str.to_re "R") (re.union (str.to_re "F@_") (re.union (str.to_re "Nx") (str.to_re "p")))) (re.++ (re.union (str.to_re "M^") (re.union (str.to_re "9`G") (re.union (str.to_re ",") (str.to_re ":")))) (re.union (str.to_re "7R") (re.union (str.to_re "~=") (re.union (str.to_re "vxx") (str.to_re "4Ku")))))))) (re.++ ((_ re.loop 6 298) (re.++ (re.union (str.to_re "-:C") (re.union (str.to_re "--") (re.union (str.to_re "X#") (str.to_re "8D")))) (re.++ (re.union (str.to_re "p5") (re.union (str.to_re ",sj") (re.union (str.to_re "p7") (str.to_re "d%")))) (re.++ (re.union (str.to_re "XSX") (re.union (str.to_re "d<=") (re.union (str.to_re "n#") (str.to_re "yY5")))) (re.union (str.to_re "T*") (re.union (str.to_re "z") (re.union (str.to_re "m") (str.to_re "D;d")))))))) ((_ re.loop 20 150) (re.++ (re.union (str.to_re "6^9") (re.union (str.to_re "6V") (re.union (str.to_re "<$") (str.to_re "P*")))) (re.++ (re.union (str.to_re "0") (re.union (str.to_re "yZ") (re.union (str.to_re "c^b") (str.to_re "D2")))) (re.++ (re.union (str.to_re "u,") (re.union (str.to_re "@4M") (re.union (str.to_re ">+C") (str.to_re "9")))) (re.union (str.to_re "Z{\u0022") (re.union (str.to_re "b_6") (re.union (str.to_re "|") (str.to_re ">{@"))))))))))))))
(assert (not (str.in_re var0 (re.++ (re.* re.allchar) (re.++ (re.union (str.to_re "<") (re.union (str.to_re ">") (re.union (str.to_re "'") (re.union (str.to_re "\u0022") (str.to_re "&"))))) (re.* re.allchar))))))
(assert (<= 50 (str.len var0)))
(check-sat)
(get-model)
